TYPE : Vertex Cover
DIMENSION: 27
EDGE_DATA_SECTION:
0 6
0 18
1 14
1 16
1 19
1 20
1 25
1 26
2 4
2 6
2 9
2 15
2 19
2 25
3 12
3 14
3 20
3 25
4 8
4 12
4 19
4 24
5 12
5 15
5 16
5 20
5 22
6 9
6 21
6 22
6 25
7 9
8 16
8 18
8 26
9 10
9 11
9 17
10 13
10 21
11 15
11 19
11 24
12 14
12 18
12 20
12 25
13 16
13 23
13 24
13 25
13 26
14 24
15 22
16 22
17 18
17 19
17 22
17 24
19 24
19 25
19 26
23 24
-1
VERTEX_DEGREE:
2.0 6.0 6.0 4.0 5.0 5.0 6.0 1.0 4.0 6.0 3.0 4.0 7.0 6.0 4.0 4.0 5.0 5.0 4.0 8.0 4.0 2.0 5.0 2.0 7.0 7.0 4.0
VERTEX_COVER:
1 2 3 5 6 8 9 12 13 15 18 19 21 22 24
EOF
